Route #1: 13 52 29 9 11 18 44 19 10 39 6 47 51 15 41 20 23 45 24
Route #2: 12 31 32 21 56 35 55 3
Route #3: 2 22 40 46 54 30 43 42 16 8 25 48 7 5
Route #4: 
Route #5: 37 49 14 34 4 33 50
Route #6: 53 17 36 28
Route #7: 38 26 27 1
cost 854.334775714429
